c preprocessed version of bcs01.graph-005, 44 vertices, 172 edges
p td 44 172
0 1
0 5
0 11
0 10
0 15
0 22
0 31
0 32
0 30
2 1
1 11
1 10
1 16
1 31
1 29
2 3
2 9
2 17
2 18
2 31
2 29
4 3
3 7
3 8
3 17
3 18
3 27
3 26
3 28
4 5
4 7
4 8
4 23
4 27
4 33
5 6
5 15
5 22
5 27
5 33
7 6
11 6
6 12
6 21
6 26
6 33
7 8
7 19
7 26
7 33
9 8
8 13
8 20
8 28
9 10
9 13
9 20
9 29
9 30
11 10
10 14
10 29
10 30
11 12
11 21
11 32
12 13
12 14
12 21
12 15
12 16
12 34
12 42
12 41
12 43
13 14
13 20
13 17
13 36
13 35
13 42
13 41
13 43
14 15
14 16
14 36
14 35
14 42
14 41
14 43
15 16
15 22
15 42
17 16
16 41
16 43
17 18
17 41
17 43
19 18
20 18
23 18
18 38
19 20
19 21
19 23
19 25
19 40
19 24
19 38
19 39
20 21
20 23
20 37
20 24
20 38
20 39
21 22
21 25
21 40
21 24
21 38
21 39
23 22
22 24
22 39
23 24
23 39
25 24
37 24
24 38
24 39
26 25
25 37
25 40
25 38
27 26
26 28
26 33
27 28
27 33
29 28
28 36
28 37
29 30
29 36
29 37
31 29
31 30
32 30
30 35
31 32
32 33
32 34
32 40
33 34
33 40
34 35
34 40
34 42
34 43
36 35
35 42
35 43
36 37
36 41
37 38
38 39
40 39
42 41
41 43
42 43
